
Gurobi 12.0.3 (linux64) logging started Fri Jan  2 04:16:06 2026

Set parameter LogFile to value "/home/bazzo/Scrivania/fjsp_rescheduling/simulations/logs/EX22/gurobi_exp22.log"
Set parameter OutputFlag to value 1
Set parameter TimeLimit to value 2160
Set parameter Presolve to value 2
Set parameter MIPFocus to value 3
Set parameter Heuristics to value 0.1
Set parameter ImproveStartGap to value 0.5
Set parameter Presolve to value 2
Gurobi Optimizer version 12.0.3 build v12.0.3rc0 (linux64 - "Ubuntu 22.04.5 LTS")

CPU model: Intel(R) Xeon(R) W-2145 CPU @ 3.70GHz, instruction set [SSE2|AVX|AVX2|AVX512]
Thread count: 8 physical cores, 16 logical processors, using up to 16 threads

Non-default parameters:
TimeLimit  2160
Heuristics  0.1
MIPFocus  3
Presolve  2
ImproveStartGap  0.5

Optimize a model with 1627 rows, 953 columns and 6295 nonzeros
Model fingerprint: 0x073eee1e
Model has 8 quadratic constraints
Variable types: 8 continuous, 945 integer (888 binary)
Coefficient statistics:
  Matrix range     [1e+00, 3e+03]
  QMatrix range    [1e+00, 1e+00]
  QLMatrix range   [1e+00, 1e+00]
  Objective range  [1e+00, 1e+00]
  Bounds range     [1e+00, 1e+00]
  RHS range        [1e+00, 1e+04]
Presolve removed 1052 rows and 714 columns
Presolve time: 0.02s
Presolved: 575 rows, 239 columns, 3153 nonzeros
Presolved model has 8 quadratic constraint(s)
Variable types: 8 continuous, 231 integer (207 binary)
Root relaxation presolve removed 30 rows and 26 columns
Root relaxation presolved: 545 rows, 213 columns, 2997 nonzeros


Root relaxation: objective 6.400000e+01, 53 iterations, 0.00 seconds (0.00 work units)

    Nodes    |    Current Node    |     Objective Bounds      |     Work
 Expl Unexpl |  Obj  Depth IntInf | Incumbent    BestBd   Gap | It/Node Time

H    0     0                    9937317.0000   64.00000   100%     -    0s
*    0     0               0    9937317.0000   64.00000   100%     -    0s
     0     0   64.00000    0   24 9937317.00   64.00000   100%     -    0s
H    0     0                    2825917.0000   64.00000   100%     -    0s
H    0     0                    2711263.0000   64.00000   100%     -    0s
H    0     0                    2708194.0000   64.00000   100%     -    0s
H    0     0                    473374.00000   64.00000   100%     -    0s
H    0     0                    219113.00000   64.00000   100%     -    0s
     0     0   64.00000    0   10 219113.000   64.00000   100%     -    0s
H    0     0                    139638.00000   64.00000   100%     -    0s
H    0     0                    139225.00000   64.00000   100%     -    0s
H    0     0                    135325.00000   64.00000   100%     -    0s
H    0     0                    135239.00000   64.00000   100%     -    0s
H    0     0                    131356.00000   64.00000   100%     -    0s
H    0     0                    119700.00000 1703.00000  98.6%     -    0s
H    0     0                    91201.000000 1703.00000  98.1%     -    0s
     0     0 3102.00000    0   15 91201.0000 3102.00000  96.6%     -    0s
     0     0 5128.00000    0   22 91201.0000 5128.00000  94.4%     -    0s
H    0     0                    47229.000000 8186.00000  82.7%     -    0s
H    0     0                    47212.000000 8186.00000  82.7%     -    0s
H    0     0                    47197.000000 8186.00000  82.7%     -    0s
H    0     0                    46874.000000 8186.00000  82.5%     -    0s
H    0     0                    46553.000000 8186.00000  82.4%     -    0s
H    0     0                    39391.000000 8186.00000  79.2%     -    0s
     0     0 9064.00000    0   25 39391.0000 9064.00000  77.0%     -    0s
     0     0 11987.0000    0   28 39391.0000 11987.0000  69.6%     -    0s
     0     0 16448.0000    0   25 39391.0000 16448.0000  58.2%     -    0s
     0     0 16448.0000    0   25 39391.0000 16448.0000  58.2%     -    0s
     0     0 17537.0000    0   31 39391.0000 17537.0000  55.5%     -    0s
     0     0 18409.0000    0   36 39391.0000 18409.0000  53.3%     -    0s
     0     0 19317.6349    0   36 39391.0000 19317.6349  51.0%     -    0s
     0     0 20001.0000    0   36 39391.0000 20001.0000  49.2%     -    0s

Resetting heuristic parameters to focus on improving solution
(using Heuristics=0.5 and RINS=10)...

     0     0 20001.0000    0   36 39391.0000 20001.0000  49.2%     -    1s
     0     0 20001.0000    0   48 39391.0000 20001.0000  49.2%     -    1s
     0     0 20001.0000    0   41 39391.0000 20001.0000  49.2%     -    1s
     0     2 20001.0000    0   40 39391.0000 20001.0000  49.2%     -    1s
     1     4 20001.0000    1   37 39391.0000 20001.0000  49.2%  28.0    1s
H  855   165                    35523.000000 34755.0000  2.16%  24.6    2s

Cutting planes:
  Learned: 96
  Gomory: 49
  Lift-and-project: 45
  Cover: 74
  Implied bound: 54
  Projected implied bound: 3
  MIR: 159
  Mixing: 26
  StrongCG: 101
  Flow cover: 729
  Inf proof: 2
  Zero half: 72
  RLT: 19
  Relax-and-lift: 45

Explored 894 nodes (23344 simplex iterations) in 2.02 seconds (1.74 work units)
Thread count was 16 (of 16 available processors)

Solution count 10: 35523 39391 46553 ... 131356

Optimal solution found (tolerance 1.00e-04)
Best objective 3.552300000000e+04, best bound 3.552300000000e+04, gap 0.0000%

User-callback calls 3858, time in user-callback 0.01 sec
Set parameter TimeLimit to value 1080
Gurobi Optimizer version 12.0.3 build v12.0.3rc0 (linux64 - "Ubuntu 22.04.5 LTS")

CPU model: Intel(R) Xeon(R) W-2145 CPU @ 3.70GHz, instruction set [SSE2|AVX|AVX2|AVX512]
Thread count: 8 physical cores, 16 logical processors, using up to 16 threads

Non-default parameters:
TimeLimit  1080
Heuristics  0.1
MIPFocus  3
Presolve  2
ImproveStartGap  0.5

Optimize a model with 1628 rows, 953 columns and 6303 nonzeros
Model fingerprint: 0xaf4427e9
Model has 8 quadratic constraints
Variable types: 8 continuous, 945 integer (888 binary)
Coefficient statistics:
  Matrix range     [1e+00, 3e+03]
  QMatrix range    [1e+00, 1e+00]
  QLMatrix range   [1e+00, 1e+00]
  Objective range  [5e-01, 5e-01]
  Bounds range     [1e+00, 1e+00]
  RHS range        [1e+00, 4e+04]

MIP start from previous solve produced solution with objective 31 (0.00s)
Loaded MIP start from previous solve with objective 31

Presolve removed 1126 rows and 739 columns
Presolve time: 0.02s
Presolved: 502 rows, 214 columns, 2389 nonzeros
Presolved model has 8 quadratic constraint(s)
Found heuristic solution: objective 8.0000000
Variable types: 8 continuous, 206 integer (182 binary)
Root relaxation presolve removed 25 rows and 24 columns
Root relaxation presolved: 477 rows, 190 columns, 2269 nonzeros


Root relaxation: objective 4.000000e+00, 20 iterations, 0.00 seconds (0.00 work units)

    Nodes    |    Current Node    |     Objective Bounds      |     Work
 Expl Unexpl |  Obj  Depth IntInf | Incumbent    BestBd   Gap | It/Node Time

     0     0    4.00000    0    -    8.00000    4.00000  50.0%     -    0s
     0     0    4.00000    0   16    8.00000    4.00000  50.0%     -    0s
     0     0    4.00000    0    4    8.00000    4.00000  50.0%     -    0s
     0     0    4.00000    0    5    8.00000    4.00000  50.0%     -    0s
     0     0    4.01604    0    4    8.00000    4.01604  49.8%     -    0s

Resetting heuristic parameters to focus on improving solution
(using Heuristics=0.5 and RINS=10)...

     0     0    4.01604    0    6    8.00000    4.01604  49.8%     -    0s
     0     0    4.01604    0   12    8.00000    4.01604  49.8%     -    0s
     0     0    4.01604    0   10    8.00000    4.01604  49.8%     -    0s
     0     2    5.00000    0   10    8.00000    5.00000  37.5%     -    0s
     1     4    5.00000    1   12    8.00000    5.00000  37.5%  22.0    0s

Cutting planes:
  Learned: 19
  Gomory: 25
  Lift-and-project: 5
  Cover: 18
  MIR: 40
  Mixing: 7
  StrongCG: 16
  Flow cover: 139
  Zero half: 2
  RLT: 12
  Relax-and-lift: 5

Explored 726 nodes (12333 simplex iterations) in 0.51 seconds (0.43 work units)
Thread count was 16 (of 16 available processors)

Solution count 2: 8 31 

Optimal solution found (tolerance 1.00e-04)
Best objective 8.000000000000e+00, best bound 8.000000000000e+00, gap 0.0000%

User-callback calls 2801, time in user-callback 0.00 sec
Set parameter TimeLimit to value 360
Gurobi Optimizer version 12.0.3 build v12.0.3rc0 (linux64 - "Ubuntu 22.04.5 LTS")

CPU model: Intel(R) Xeon(R) W-2145 CPU @ 3.70GHz, instruction set [SSE2|AVX|AVX2|AVX512]
Thread count: 8 physical cores, 16 logical processors, using up to 16 threads

Non-default parameters:
TimeLimit  360
Heuristics  0.1
MIPFocus  3
Presolve  2
ImproveStartGap  0.5

Optimize a model with 1630 rows, 953 columns and 6373 nonzeros
Model fingerprint: 0xb69529db
Model has 8 quadratic constraints
Variable types: 8 continuous, 945 integer (888 binary)
Coefficient statistics:
  Matrix range     [5e-01, 3e+03]
  QMatrix range    [1e+00, 1e+00]
  QLMatrix range   [1e+00, 1e+00]
  Objective range  [1e+00, 1e+00]
  Bounds range     [1e+00, 1e+00]
  RHS range        [1e+00, 4e+04]

MIP start from previous solve produced solution with objective 787 (0.00s)
Loaded MIP start from previous solve with objective 787

Presolve removed 1116 rows and 738 columns
Presolve time: 0.02s
Presolved: 514 rows, 215 columns, 2444 nonzeros
Presolved model has 8 quadratic constraint(s)
Variable types: 8 continuous, 207 integer (182 binary)

Resetting heuristic parameters to focus on improving solution
(using Heuristics=0.5 and RINS=10)...

Root relaxation presolve removed 27 rows and 23 columns
Root relaxation presolved: 487 rows, 192 columns, 2323 nonzeros


Root relaxation: objective 6.420000e+02, 40 iterations, 0.00 seconds (0.00 work units)

    Nodes    |    Current Node    |     Objective Bounds      |     Work
 Expl Unexpl |  Obj  Depth IntInf | Incumbent    BestBd   Gap | It/Node Time

     0     0  642.00000    0   10  787.00000  642.00000  18.4%     -    0s
     0     0  642.00000    0   10  787.00000  642.00000  18.4%     -    0s
     0     0  642.00000    0   10  787.00000  642.00000  18.4%     -    0s
     0     2  642.00000    0   10  787.00000  642.00000  18.4%     -    0s

Cutting planes:
  Learned: 18
  Gomory: 7
  Lift-and-project: 6
  Cover: 50
  Implied bound: 9
  MIR: 84
  Mixing: 16
  StrongCG: 68
  Flow cover: 366
  Inf proof: 3
  Zero half: 45
  RLT: 23
  Relax-and-lift: 8

Explored 574 nodes (7294 simplex iterations) in 0.49 seconds (0.41 work units)
Thread count was 16 (of 16 available processors)

Solution count 1: 787 

Optimal solution found (tolerance 1.00e-04)
Best objective 7.870000000000e+02, best bound 7.870000000000e+02, gap 0.0000%

User-callback calls 2355, time in user-callback 0.00 sec
